
Gurobi 10.0.1 (win64) logging started Sun Oct  8 10:18:50 2023

Set parameter LogFile to value "./results//log/FMS_12_makespan_heurTrue.log"
Gurobi Optimizer version 10.0.1 build v10.0.1rc0 (win64)

CPU model: AMD Ryzen 7 3700X 8-Core Processor, instruction set [SSE2|AVX|AVX2]
Thread count: 8 physical cores, 16 logical processors, using up to 16 threads

Optimize a model with 322 rows, 304 columns and 1316 nonzeros
Model fingerprint: 0x810d51c1
Variable types: 0 continuous, 304 integer (264 binary)
Coefficient statistics:
  Matrix range     [1e+00, 1e+07]
  Objective range  [1e+00, 1e+00]
  Bounds range     [1e+00, 1e+00]
  RHS range        [1e+00, 3e+07]

Warning: Completing partial solution with 274 unfixed non-continuous variables out of 304
User MIP start did not produce a new incumbent solution
User MIP start violates constraint initial_start_time_job0_stage0_machine2_constraint by 420.000000000

Presolve removed 46 rows and 159 columns
Presolve time: 0.00s
Presolved: 276 rows, 145 columns, 1228 nonzeros
Variable types: 0 continuous, 145 integer (106 binary)
Found heuristic solution: objective 11327.000000
Found heuristic solution: objective 10884.000000
Found heuristic solution: objective 8298.0000000

Root relaxation: objective 4.000000e+03, 57 iterations, 0.00 seconds (0.00 work units)

    Nodes    |    Current Node    |     Objective Bounds      |     Work
 Expl Unexpl |  Obj  Depth IntInf | Incumbent    BestBd   Gap | It/Node Time

     0     0 4000.00000    0   14 8298.00000 4000.00000  51.8%     -    0s
Another try with MIP start
H    0     0                    5912.0000000 4000.00000  32.3%     -    0s
H    0     0                    5872.0000000 4032.00000  31.3%     -    0s
     0     0 4032.00000    0   29 5872.00000 4032.00000  31.3%     -    0s
H    0     0                    5870.0000000 4032.00000  31.3%     -    0s
     0     0 4032.00000    0   32 5870.00000 4032.00000  31.3%     -    0s
     0     0 4032.00000    0   23 5870.00000 4032.00000  31.3%     -    0s
     0     0 4032.00000    0   31 5870.00000 4032.00000  31.3%     -    0s
     0     0 4032.00000    0   31 5870.00000 4032.00000  31.3%     -    0s
     0     0 4036.00000    0   31 5870.00000 4036.00000  31.2%     -    0s
H    0     0                    5869.0000000 4036.00000  31.2%     -    0s
     0     0 4039.87177    0   31 5869.00000 4039.87177  31.2%     -    0s
H    0     0                    5437.0000000 4040.92357  25.7%     -    0s
     0     0 4040.92357    0   36 5437.00000 4040.92357  25.7%     -    0s
H    0     0                    5415.0000000 4042.04735  25.4%     -    0s
     0     0 4042.04735    0   35 5415.00000 4042.04735  25.4%     -    0s
     0     0 4043.00000    0   35 5415.00000 4043.00000  25.3%     -    0s
     0     0 4045.00050    0   36 5415.00000 4045.00050  25.3%     -    0s
     0     0 4045.04735    0   34 5415.00000 4045.04735  25.3%     -    0s
     0     0 4046.00000    0   34 5415.00000 4046.00000  25.3%     -    0s
     0     0 4048.00050    0   36 5415.00000 4048.00050  25.2%     -    0s
     0     0 4048.00050    0   36 5415.00000 4048.00050  25.2%     -    0s
     0     2 4048.00050    0   36 5415.00000 4048.00050  25.2%     -    0s
* 9361  2972              59    5343.0000000 4269.86559  20.1%   2.4    1s
*19641  5496              46    5308.0000000 4340.19028  18.2%   3.2    2s
 43652  9246 5137.00000   47   37 5308.00000 4589.00000  13.5%   3.7    5s
 108234  4050     cutoff   64      5308.00000 5021.83373  5.39%   4.7   10s

Cutting planes:
  Learned: 3
  Gomory: 16
  Implied bound: 2
  MIR: 6
  Flow cover: 9
  RLT: 1
  Relax-and-lift: 3

Explored 132429 nodes (641404 simplex iterations) in 11.38 seconds (2.13 work units)
Thread count was 16 (of 16 available processors)

Solution count 10: 5308 5343 5415 ... 10884

Optimal solution found (tolerance 1.00e-04)
Best objective 5.308000000000e+03, best bound 5.308000000000e+03, gap 0.0000%
Warning: constraint name "precedence between 0,0 to 0,1 if x_[0,0,0,1,3]=0, i.e. 0,1 before 0,0" has a space
Warning: constraint name "precedence between 0,0 to 0,1 if x_[0,0,0,1,3]=0, i.e. 0,1 before 0,0" has a space
Warning: default constraint names used to write mps file
